# CCSD(T)/cc-pVTZ

Title Card Required

0 1
 O                 -1.39158700   -0.08306100    0.04863300
 H                 -1.74620600    0.80901000   -0.05432900
 H                 -0.70478700   -0.14416500   -0.63291200
 O                  1.39159200   -0.08286600   -0.04892700
 H                  0.70573200   -0.14678500    0.63330800
 H                  1.74522200    0.80936000    0.05628000

