# CCSD(T)/cc-pVTZ 

Title Card Required

0 1
 O                  0.00000000    0.00000000    0.11918800
 H                  0.00000000    0.75927200   -0.47675300
 H                  0.00000000   -0.75927200   -0.47675300

